"number","title","pageid","namespace","length","touched"
"1","Suy_luận_loại_suy","1468501","","2426","20200823055602"
"2","Do_Thái_giáo","328009","","46974","20230602195638"
"3","Coolhunting","343574","","9931","20230518191753"
"4","Đức_Mẹ_La_Mã_Bến_Tre","812248","","9486","20220723035955"
"5","Cách_mạng_xã_hội","3290590","","3286","20220115170847"
"6","Ngôn_sứ","2353738","","2132","20230111083200"
"7","Chủ_nghĩa_thế_tục","3211719","","6650","20230717081704"
"8","Thánh_Mẫu","42272","","1773","20230719090559"
"9","Vật_chất_(triết_học)","456122","","10004","20221018041646"
"10","Phong_tục","406802","","1476","20221105151555"
"11","Ars_Moriendi","813714","","3973","20221111200641"
"12","Nhà_triết_học","28658","","1743","20220528065537"
"13","Tôn_giáo_và_phá_thai","19497772","","26626","20230322170715"
"14","Hiệu_ứng_pizza","18019020","","13918","20211224103453"
"15","Hành_vi_học","2221725","","4547","20230512040713"
"16","Công_đồng_Lateranô_III","1937843","","1703","20170820095954"
"17","Immanuel_Kant","30992","","101772","20230620133655"
"18","Nhất_nguyên","46010","","3849","20211129181427"
"19","Horizon_2000","15202068","","4322","20220420052951"
"20","Lương_tâm","76509","","1946","20230309161054"
"21","Đàn_áp_tôn_giáo","19498047","","13071","20210821125337"
"22","Gandharva","2908585","","1898","20220405131303"
"23","Thần","308567","","6356","20230718081829"
"24","Tu_viện","803853","","5001","20220115103957"
"25","Apeiron_(vũ_trụ_học)","3394443","","4147","20200817225842"
"26","Căn_phòng_tiếng_Trung_Quốc","3253795","","1707","20230115101006"
"27","Ludwig_von_Mises","19526846","","5253","20211213191634"
"28","Di_vật","19724242","","5924","20221120221834"
"29","Giáo_điều","19586204","","5625","20230506025510"
"30","Tu_sĩ","1301143","","4879","20220821071439"
"31","Trần_Đức_Thảo","56515","","28575","20230320224649"
"32","Hộp_đen","1554122","","7789","20230513231337"
"33","Các_tôn_giáo_khởi_nguồn_từ_Abraham","6782","","32742","20220804224218"
"34","Đấng_tạo_hóa","19433700","","2640","20230614005654"
"35","Jaegwon_Kim","1407046","","2687","20211214033718"
"36","Thần_đạo","143986","","32109","20230331142328"
"37","Sự_dung_hợp_tôn_giáo","19790071","","19760","20230606154813"
"38","Nho_giáo","7031","","237064","20230629004012"
"39","Công_đồng_Lateranô_II","1937841","","2608","20211013155357"
"40","Mật_tông","6173","","15241","20230402165829"
"41","Quảng_Cung_Công_chúa","3679117","","7311","20230613161927"
"42","Chiến_tranh_tôn_giáo","7869534","","3522","20220504041334"
"43","Chủ_nghĩa_thực_chứng_logic","19364276","","4325","20211010095127"
"44","Internet_Encyclopedia_of_Philosophy","10725074","","5147","20220414014610"
"45","Thiền_tông_Việt_Nam","19686022","","3925","20220622101600"
"46","Do_Thái_giáo_Hasidim","3144713","","3830","20211203014852"
"47","Quan_hệ_giữa_tôn_giáo_và_khoa_học","19364031","","13094","20211106171556"
"48","Phương_pháp_tương_tự","579909","","3224","20210822131548"
"49","Chủ_nghĩa_bảo_thủ_xã_hội","17115019","","5735","20221117055239"
"50","A-tu-la","851070","","5720","20221203173420"
"51","Thần_cá_thể","298347","","1534","20230315095829"
"52","Lỗ_trắng","32072","","5057","20230625125534"
"53","Chúa_Con","1290007","","1206","20230325080149"
"54","Tái_sinh","31744","","9169","20230409104434"
"55","Quy_luật_phủ_định","801146","","15503","20220628054623"
"56","Kitô_hữu","61833","","44276","20230101054336"
"57","Thí_nghiệm_tưởng_tượng","550623","","2886","20221025002149"
"58","Đa_nguyên_tôn_giáo","19497882","","10596","20201005110244"
"59","Trừu_tượng","3683206","","1311","20221105151555"
"60","Chủ_nghĩa_chống_tư_bản","576685","","8525","20230526160211"
"61","Vấn_đề_tâm-vật","1406926","","4636","20230712003016"
"62","Phép_đặt_tay","19811783","","6798","20230629140923"
"63","Lịch_sử_vũ_trụ","3640494","","9585","20230701084111"
"64","Ngũ_chi_Đại_Đạo","825548","","11367","20230323043253"
"65","Guru_Nanak","3146645","","5260","20230617204059"
"66","Chủ_nghĩa_Marx","16604","","83344","20230110055042"
"67","Lịch_sử_tôn_giáo","270178","","12376","20230213170727"
"68","Latter_Days","3208295","","25109","20220207011941"
"69","Thiết_kế","11135499","","43423","20230724093351"
"70","Thời_đại","19516284","","3759","20211010141630"
"71","Đan_sĩ","1395732","","2141","20230625102536"
"72","Con_lừa_của_Buridan","19721765","","19836","20230418045129"
"73","Đức_tin_Kitô_giáo","32547","","17286","20211117005446"
"74","Quan_điểm_toàn_diện","19514625","","7224","20221115160149"
"75","Vũ_trụ_học_quan_sát","14400502","","14417","20221112091759"
"76","Vụ_Co_Lớn","13127","","5067","20211227091824"
"77","Chúa_Thánh_Linh","29163","","17921","20230121005647"
"78","Chủ_nghĩa_thực_dụng","68887","","4546","20230501005620"
"79","Dị_giáo","1646799","","35705","20230722115615"
"80","Khí_(triết_học)","66123","","735","20220713011918"
"81","Bồ_tát","9086","","8596","20230503054415"
"82","Phê_phán_chủ_nghĩa_tư_bản","589799","","9694","20220103133200"
"83","Đạo_luật_Công_dân,_2019","16320591","","11215","20221031123849"
"84","Luật_học","331317","","1624","20230420092809"
"85","Kỳ_Na_giáo","469458","","13091","20230519224309"
"86","Triết_học_Ấn_Độ","342975","","10058","20230705034820"
"87","Thế_giới_quan","2263629","","4419","20230315124109"
"88","Wicca","3248639","","1379","20221103162105"
"89","Hội_Thánh_Tin_Lành_Việt_Nam_(miền_Nam)","524336","","13734","20230420103844"
"90","Tâm_linh_phi_tôn_giáo","14926175","","996","20190522141516"
"91","Ném_ra_ngoài_cửa_sổ_lần_thứ_hai_ở_Praha","3506691","","702","20161004070521"
"92","Công_đồng_Constantinopolis_V","1951800","","2402","20220910070130"
"93","Tâm_lý_học_nghệ_thuật","3432015","","68761","20221026222954"
"94","Công_đồng_Lyon_II","1937858","","1898","20210216123515"
"95","Tự_nhận_thức","19732193","","2598","20220609151331"
"96","Bahá'í_tại_Việt_Nam","824975","","20252","20220704020159"
"97","Công_đồng_Lateranô_I","1936358","","3174","20220103070954"
"98","Tâm_linh","3218231","","5774","20230725044322"
"99","Tư_tế","805906","","6476","20230211160800"
"100","Vũ_trụ_quan_sát_được","23805","","9380","20230107062243"
"101","Xung_đột_Bắc_Rakhine","7495878","","16732","20230331045219"
"102","Thánh_Giuse_với_Giáo_hội_Công_giáo_Việt_Nam","1614836","","19903","20230314200505"
"103","Tôn_giáo_Ai_Cập_cổ_đại","504744","","17160","20230710030830"
"104","Trái_Đất_rỗng","800150","","20677","20221213115558"
"105","Viện_phụ","1519618","","1663","20200618143803"
"106","Công_nghị_Constantinopolis_(1872)","1953369","","1297","20210726152352"
"107","Tôi_là_ai_-_và_nếu_vậy_thì_bao_nhiêu?","19476107","","3545","20220803064918"
"108","Công_đồng_Vaticanô_I","1938692","","1954","20211228100431"
"109","Chữa_bệnh_bằng_đức_tin","19811778","","17415","20230706152541"
"110","Thời_gian","2563","","21730","20230627063234"
"111","Nước_thánh","19726763","","7430","20230311060349"
"112","Mười_hai_tông_đồ_Cao_Đài","768674","","2077","20221214121306"
"113","Chủ_nghĩa_tự_do_tôn_giáo","19497746","","2831","20201002023553"
"114","Ernst_Haeckel","79481","","3504","20221212001747"
"115","Âm_phủ","9351","","5015","20230418072202"
"116","Miko","145273","","10269","20230529060415"
"117","Độc_quyền_bạo_lực","19739603","","1760","20220828105849"
"118","Pierre_Duhem","1407281","","2680","20211213153729"
"119","Biểu_tượng","1249216","","2500","20221027063949"
"120","Vụ_Nổ_Lớn","4184","","138418","20230423091354"
"121","Ăn_năn","135209","","18750","20210827141747"
"122","Lý_luận_(triết_học)","19514250","","5168","20210812134452"
"123","Chiêm_tinh_học","543961","","121861","20230604070947"
"124","Ấn_Độ_giáo_tại_Việt_Nam","19651629","","5560","20230308142317"
"125","Thánh_Giuse","1519734","","74588","20230320005159"
"126","Triết_học_Hy_Lạp_cổ_đại","460367","","6741","20230615072622"
"127","Kinh_tế_học_Phật_giáo","3209283","","4587","20230622021916"
"128","Phụng_vụ","3637576","","5783","20220106222401"
"129","Shin_Seiki_Evangelion","141782","","97021","20221021105106"
"130","Tiếng_Cherokee","3515596","","27567","20230713090212"
"131","Tín_ngưỡng_thờ_Mẫu_Việt_Nam","515998","","29785","20230710005023"
"132","Giáo_dân","248393","","2401","20221114093816"
"133","Phép_thuật_trắng","14804740","","1921","20221207045630"
"134","Tiếng_Syriac","2451913","","5851","20230713093245"
"135","Cứu_rỗi_trong_Kitô_giáo","31743","","18730","20230526043003"
"136","Shaman_giáo","2261123","","9666","20230502050929"
"137","Xã_hội_hậu_công_nghiệp","16833213","","21091","20221025210708"
"138","Bùa_hộ_mệnh","320101","","9547","20220626085249"
"139","Sở_hữu_trí_tuệ","44702","","2424","20230622035654"
"140","Nhân_phẩm","19357051","","9175","20230608141117"
"141","Chủ_nghĩa_duy_tâm_chủ_quan","3260638","","2183","20230216140029"
"142","Tôn_giáo_phương_Tây","19811771","","8064","20230710030817"
"143","Dòng_chảy_(tâm_lý)","1525564","","8109","20221123080132"
"144","Tính_cách","26272","","5711","20230507151211"
"145","Thi-bà-la","19724525","","3944","20230706130538"
"146","Công_đồng_Constantinopolis_II","1935822","","2805","20220102100129"
"147","Tác_phẩm_nghệ_thuật","19425499","","7491","20200702125842"
"148","Rửa_tội","396838","","13895","20230310022109"
"149","Tư_duy_sáng_tạo","7676","","22349","20230716091947"
"150","Quốc_giáo","625883","","8168","20220411140217"
"151","Pagan_giáo","2353705","","23102","20221015232522"
"152","Bệnh_kinh_nghiệm","19524360","","2804","20210124161126"
"153","Triết_học_kinh_tế","3632655","","583","20190604082108"
"154","Tôn_giáo_La_Mã_cổ_đại","17202482","","5805","20211017211632"
"155","Vũ_trụ_học_tôn_giáo","19497749","","3526","20210430012041"
"156","Triết_học_chính_trị","91951","","17632","20211103124142"
"157","Giáo_sĩ","3116460","","2391","20230305053756"
"158","Thần_thoại","24370","","15246","20221217114337"
"159","Nghi_lễ_trừ_tà","19728833","","16171","20220528111744"
"160","Thánh_Mẫu_học","1880436","","4443","20211118135431"
"161","Avesta","3146884","","3429","20221228150255"
"162","Thập_tự_chinh","62970","","43359","20230404082526"
"163","Hasdai_Crescas","19796938","","94837","20230618074352"
"164","Hiệp_sĩ_của_Đức_tin","7459241","","44012","20200718105749"
"165","Tôn_giáo_Inuit","19729028","","10883","20230629051635"
"166","Tôn_giáo_của_người_Chăm","1739783","","29562","20230626113702"
"167","Cách_ngôn","19356961","","1466","20230606151350"
"168","Mê_tín","457502","","4867","20230630135604"
"169","Tự_hào","13375417","","5082","20230102163521"
"170","Epictetus","18017039","","9721","20220404075812"
"171","Tôn_giáo_Maya","781428","","1163","20221102100254"
"172","Triết_học_xã_hội","92714","","1708","20200619183341"
"173","Giáo_lý_Vấn_đáp_Heidelberg","1738707","","5847","20221016085221"
"174","Trường_phái_Frankfurt","1325918","","4136","20220719044836"
"175","Trí_thức","1115812","","4739","20230610083554"
"176","Phạm_trù","151852","","4514","20211019184500"
"177","Tiêu_chuẩn_đen","14838545","","4910","20211202235756"
"178","Giới_luật_Phật_giáo","19784204","","5568","20230617113408"
"179","Nội_chiến_Syria","673707","","79817","20230716041702"
"180","Vũ_trụ","7406","","106317","20230604072027"
"181","Người_canh_giữ_Hai_Thánh_địa","3712469","","1690","20220104220734"
"182","Định","78407","","6240","20230317050731"
"183","Chính_sách_tôn_giáo_tách_biệt_ở_Pháp","3191721","","5261","20220509033932"
"184","Jiddu_Krishnamurti","266811","","11556","20230311125819"
"185","Công_đồng_Lyon_I","1937855","","1556","20201020122250"
"186","Thần_Mặt_Trời","502853","","2309","20221008002705"
"187","Đạo_lý","3272691","","6999","20230305111830"
"188","Pyrrho","3305247","","5445","20211214113219"
"189","Phép_thuật","440512","","5041","20230129105921"
"190","Mõ","1277102","","14166","20220718035023"
"191","Đại_Tiên","19551828","","3069","20230610104602"
"192","Medefaidrin","19128711","","4181","20210806034216"
"193","Chủ_nghĩa_vị_lợi","3646498","","121319","20230420091837"
"194","Hội_Long_Hoa","14757175","","7286","20230712035344"
"195","Hội_thánh_vô_hình","2152375","","11406","20211023093559"
"196","Liên_văn_hóa","13131305","","4477","20230524034838"
"197","Ngôn_ngữ_cơ_thể","474637","","14632","20230628180225"
"198","Cơ_sở_hạ_tầng_và_kiến_trúc_thượng_tầng","1102690","","10518","20230505073505"
"199","Muối_thánh","19728824","","3471","20220606102726"
"200","Femen","2431664","","8595","20230616020721"
"201","Phật_Mẫu","19706595","","1092","20230525025713"
"202","Tiếng_Đức_Pennsylvania","523978","","3478","20220723054830"
"203","Hedone","13833166","","1808","20211125000920"
"204","Thuyết_hư_vô","3127990","","10917","20230303043720"
"205","Chế_độ_nhân_tài","3432530","","1932","20201105005730"
"206","Giải_thoát","31342","","4432","20221214104317"
"207","Ý_tưởng","1249257","","1970","20201102184623"
"208","Tôn_giáo_Lưỡng_Hà_cổ_đại","16593537","","4362","20220708160203"
"209","Chết_vì_cười","411692","","4815","20220527125107"
"210","Phản_địa_đàng","19423456","","41123","20221231215124"
"211","Năm_Tín_lý_Duy_nhất","50482","","4104","20211112132038"
"212","Chuỗi_tràng_hạt_(Phật_giáo)","308332","","6718","20220516204047"
"213","Tiếng_Copt","2360481","","2984","20211024130245"
"214","Bảy_công_đồng_đại_kết_đầu_tiên","1968288","","5647","20220418162501"
"215","Lạc_quan","14666750","","4208","20230330081940"
"216","Tôn_giáo","4620","","57072","20230719084548"
"217","Chữ_Vạn","65015","","15355","20230515143639"
"218","Luận_cứ_mục_đích","58003","","11399","20221005115832"
"219","Giáo_trưởng","14476963","","1729","20220904042541"
"220","Thu_thập_ngẫu_nhiên","8378","","7262","20210704224419"
"221","Thích-ca_Mâu-ni","11444","","121711","20230721064004"
"222","Thuyết_ngộ_đạo","3145591","","8917","20221216233153"
"223","Hằng_số_vũ_trụ","490972","","44033","20221231185042"
"224","Bản_đồ_vũ_trụ_3_chiều","42726","","2022","20171128013922"
"225","Điểm_kỳ_dị_ban_đầu","17644265","","4952","20211115111129"
"226","Bạch_Liên_giáo","805869","","1293","20220215020540"
"227","Triết_học_giáo_dục","2427716","","5757","20230318231838"
"228","Giáo_hội_Công_giáo_Quốc_gia_Ba_Lan","19581585","","6554","20220203111738"
"229","Giambattista_Vico","19435925","","20221","20230604103645"
"230","Thuyết_độc_thần","14404","","11714","20220515145314"
"231","Chính_thống","15113017","","1084","20211102133526"
"232","Chủ_nghĩa_hoài_nghi","51240","","29717","20210812120032"
"233","Đạo_Hà_Mòn","13515496","","3132","20211115100453"
"234","Thành_công","19697177","","18388","20230331125115"
"235","Cộng_tính_văn_hóa","19739207","","47281","20230518161723"
"236","In_shā'_Allāh","19357988","","3389","20210816123849"
"237","Ai_là_người_Do_Thái?","3144274","","7729","20230415215208"
"238","Thuật_phù_thuỷ","1342081","","6133","20230311081214"
"239","Cứu_độ","19270393","","9871","20230707143834"
"240","Thực_tế","469422","","46024","20230714072808"
"241","Biểu_tượng_Phật_giáo","19724284","","24823","20230607044931"
"242","Chủ_nghĩa_nhân_đạo","268571","","1442","20220617112736"
"243","Phép_thuật_đen","14338431","","1831","20221127045720"
"244","Augustinô_thành_Hippo","42203","","48541","20230706134950"
"245","Mô_hình_khái_niệm","18606835","","5719","20221231182645"
"246","Akbar_Đại_đế","239837","","42619","20221102092252"
"247","Ảnh_hưởng_của_đại_dịch_COVID-19_đối_với_tôn_giáo","19627956","","34676","20230409204413"
"248","Tam_giáo","4732","","7715","20230105061139"
"249","Thuyết_nhị_nguyên","192419","","7255","20211129181537"
"250","Chủ_nghĩa_duy_con_người","562320","","2100","20230604060337"
"251","Hội_Thánh_Đức_Chúa_Trời_Toàn_Năng","15199611","","13402","20230624012242"
"252","Xuất_thần","19729157","","6294","20220526124410"
"253","Công_giáo","3719","","11138","20221019164412"
"254","Vĩnh_cửu_luân_hồi","324671","","3328","20230215051729"
"255","Chiến_tranh_Ba_Mươi_Năm","138302","","79240","20230424081345"
"256","Ba_quy_luật_cơ_bản_của_phép_biện_chứng_duy_vật","801148","","8396","20230129123725"
"257","Á_thần","19344334","","17963","20230719080233"
"258","Kinh_Dịch","3012","","43166","20230427135317"
"259","Khái_niệm","24551","","2568","20221105151555"
"260","10_vị_Bồ_Tát","19795877","","5620","20230715103232"
"261","Ngạo_mạn","19159859","","3303","20230412075650"
"262","Tha_thứ","14369326","","8762","20210813134459"
"263","Tranh_cát","295350","","3658","20221025120453"
"264","Nymph","807790","","9860","20230629144541"
"265","Chủ_nghĩa_xét_lại_(chủ_nghĩa_Marx)","785219","","10171","20221108043045"
"266","Tôn_kính_Đức_Maria","1764464","","4463","20211028231701"
"267","Chân_trời_vũ_trụ_học","92221","","1508","20210326061243"
"268","Thiên_Chúa_giáo","3381","","4621","20230607113532"
"269","Pháp_danh","14251156","","5237","20220730110849"
"270","Aaron","3260744","","3122","20181226120325"
"271","Công_đồng_Lateranô_V","1938351","","1812","20210806051830"
"272","Vệ_tinh_của_vệ_tinh","14668877","","6660","20230124061525"
"273","Tam_minh","78403","","1487","20221223015833"
"274","Chủ_nghĩa_xã_hội_khoa_học","759693","","12268","20230527030923"
"275","Đạo_giáo","14406","","75813","20230316095908"
"276","Danh_sách_nhà_hoài_nghi_khoa_học","19734604","","36081","20230528010306"
"277","Abraxas","19629165","","6519","20230418065322"
"278","Chúa_Cha","29164","","9950","20230325080211"
"279","Thông_thiên_học","19791139","","12203","20230506145641"
"280","Mục_đích_luận","588584","","1838","20230502085905"
"281","Kitô_giáo","3372","","94202","20230706131014"
"282","Chương_trình_nghiên_cứu","3631522","","3090","20211109133227"
"283","Bóng_đá_ba_đội","8101777","","7212","20221021115220"
"284","Dòng_Anh_Em_Giảng_Thuyết","1710734","","6203","20230610131242"
"285","Tấn_phong","3175908","","617","20210226003227"
"286","Phong_trào_Đại_kết","822460","","18535","20220601024710"
"287","Mẫu_Địa","42294","","646","20221224055538"
"288","Tôn_giáo_và_sức_khỏe","14850452","","8724","20221231183002"
"289","Móc_và_néo","15613778","","5290","20191024035349"
"290","William_James","194026","","4365","20221001141749"
"291","Nghi_thức_Rôma","17344571","","23642","20221229140121"
"292","Tầm_quan_trọng_của_tôn_giáo_theo_quốc_gia","3713237","","9909","20190707063808"
"293","Triết_học_hậu_hiện_đại","19363572","","4977","20211010101010"
"294","Ngôi_sao_năm_cánh","322023","","25032","20230123205219"
"295","Luy_Lâu","147273","","6361","20230214182354"
"296","A-la-hán","8777","","67474","20230329164231"
"297","Tiếng_Ge'ez","3705138","","9307","20220418124224"
"298","Vũ_điệu_tử_thần","813713","","3103","20230307151350"
"299","Nhân_Chứng_Giê-hô-va","2061","","10031","20230310090302"
"300","Giờ_tương_đối","15007769","","4822","20200819085825"
"301","Bản_tuyên_tín","19385165","","2783","20220918135526"
"302","Chu_diên","19767402","","10111","20221124081639"
"303","Kê_gian","3182739","","12648","20230714153841"
"304","Triết_học_luật_pháp","1750452","","2372","20200814104232"
"305","Thánh_nữ","19748282","","1522","20230325080331"
"306","Giáo_hội","1377676","","6644","20210603040116"
"307","Flying_Spaghetti_Monster","775982","","20120","20230616055505"
"308","Cơ_chế_mindsponge","19739307","","65166","20230518162511"
"309","Candomblé","19790000","","16659","20230323191235"
"310","Lẽ_sống","19496900","","2625","20200929174351"
"311","Thiền_(thực_hành)","3148065","","18659","20230605083247"
"312","Sự_giáng_sinh_của_Giêsu","1407136","","8786","20230705080529"
"313","Averroes","198226","","9876","20220220073310"
"314","Công_đồng_Nicaea_II","1936355","","2758","20220414174720"
"315","Nguyên_tắc_vàng","19420707","","4108","20220518094745"
"316","Thế_tục","3276961","","1243","20220314151040"
"317","Bản_sắc_cá_nhân","3652276","","14596","20211123185120"
"318","Chữ_thập","579811","","3372","20210908190416"
"319","Giáo_hội_Công_giáo_Cổ","1939910","","3635","20220522031258"
"320","Phẩm_trật_Thiên_thần_trong_Kitô_giáo","1519434","","12660","20230613092345"
"321","Bất_bạo_động","372154","","16432","20220323093943"
"322","Siêu_hình_học","77946","","7116","20230109211217"
"323","Công_đồng_Quinisext","1943508","","2212","20230603111709"
"324","Công_nghiệp_sáng_tạo","2259968","","18431","20211220023121"
"325","Lễ_vật","19724252","","6410","20221202220548"
"326","Sách_bài_đọc","3405722","","1179","20211115092232"
"327","Mỹ_học","13324","","4475","20230110074656"
"328","Akhenaton","149410","","107248","20230416045651"
"329","Vô_tận","16834","","15408","20230109085317"
"330","Triết_học_về_tôn_giáo","19326928","","7025","20211010143131"
"331","Metaphorming","283776","","3574","20211219113010"
"332","Ý_nghĩa_cuộc_sống","573645","","8012","20220224040406"
"333","Conatus","19590615","","59201","20220413023044"
"334","Lời_khai","19271436","","3451","20200518093226"
"335","Nous","19477039","","3818","20221119160621"
"336","György_Lukács","1422409","","5935","20221012120110"
"337","Oxford_Calculators","16245441","","8213","20220906011654"
"338","Lập_luận","53584","","4631","20210304142432"
"339","Đại_lễ_vía_Đức_Chí_Tôn","19774379","","5157","20230110032536"
"340","Tội_lỗi","44440","","23793","20220804225926"
"341","Trường_phái_tư_tưởng","19809585","","2957","20230617075420"
"342","Tiếng_Hy_Lạp_Koine","3293744","","4311","20230305141131"
"343","Cầu_nguyện","819591","","713","20221211103012"
"344","Ẩn_sĩ","826041","","3229","20200526154314"
"345","Địa_Mẫu_chân_kinh","303774","","1737","20230715041804"
"346","Lễ_Đức_Mẹ_dâng_Chúa_Giêsu_trong_đền_thánh","1763885","","4024","20221224090717"
"347","Tomáš_Garrigue_Masaryk","1094198","","22249","20220406124813"
"348","Công_đồng_Constantinopolis_IV_(869/70)","1936357","","1368","20221229210430"
"349","Kinh_điển_Phật_giáo_sơ_kỳ","19616763","","43205","20230309142448"
"350","Linh_hồn","112258","","11846","20230726010750"
"351","Cơn_sốt_đĩa_bay_1947","19771006","","5167","20230122101007"
"352","Vũ_trụ_học","92190","","3958","20220624034951"
"353","Joshua_Project","11685297","","4732","20180103163426"
"354","Allah","330297","","8297","20230530170304"
"355","Giai_cấp_tư_sản","3682651","","5452","20230226135916"
"356","Thế_giới_linh_hồn","14556166","","5695","20221217072232"
"357","Thuyết_bất_khả_tri","37975","","5257","20220731042333"
"358","Triết_học_tự_nhiên","3713631","","2472","20210209132315"
"359","Chuyên_chính_vô_sản","1102686","","10664","20221108075623"
"360","Thông_diễn_học","3431593","","2867","20221118083902"
"361","Christian_Wolff_(nhà_triết_học)","3656106","","2646","20201128200957"
"362","Thánh_truyền","1880952","","4428","20190607085215"
"363","Xã_hội_tiêu_dùng","982551","","7764","20221030020210"
"364","Nội_hàm","1463271","","996","20230128131617"
"365","Cây_sự_sống","19603866","","48592","20230106132650"
"366","Triết_học_đương_đại","19363570","","1732","20220312033439"
"367","Eduard_Bernstein","843967","","15407","20211213160402"
"368","Minh_Lý_Đạo","1741819","","5360","20230605144309"
"369","Chủ_nghĩa_vô_thần","12318","","122749","20230725095045"
"370","Công_đồng_Constance","1937985","","2651","20220530034741"
"371","Bất_nhị","19668978","","38512","20230506132352"
"372","Đền_thờ_Bahá’í,_Battambang","7456747","","5121","20211121093013"
"373","Ngũ_chi_Minh_Đạo","2456964","","2708","20221205115132"
"374","Sự_phục_sinh_của_Giêsu","35949","","34470","20230601035713"
"375","Jürgen_Habermas","450953","","2217","20220311160101"
"376","Kundalini","2444724","","41068","20230204020118"
"377","Lễ_Hiển_Linh","1678768","","9052","20220101072824"
"378","Quy_luật_thống_nhất_và_đấu_tranh_giữa_các_mặt_đối_lập","801141","","23935","20220409225314"
"379","Ý_chí_tự_do","342855","","33926","20221030180838"
"380","Công_đồng_Florence","1938162","","1910","20230611043536"
"381","Thiên_đình","255504","","3857","20230213083609"
"382","Bạo_loạn_miền_Nam_Thái_Lan","73206","","13250","20230506041625"
"383","Tri_thức_luận","37268","","25096","20230707200855"
"384","Chủ_nghĩa_duy_vật_biện_chứng","581253","","8552","20230507031926"
"385","Nguyên_lý_vị_nhân","8444","","1754","20230227134112"
"386","Triết_học_toán_học","14761780","","82513","20230126232124"
"387","Phật_giáo","4651","","143293","20230701084743"
"388","Bức_màn_vô_thức","3271230","","1524","20230403130554"
"389","Chết","18758","","38739","20230612161830"
"390","Phục_sinh","16586046","","34982","20230409061037"
"391","Giáo_tỉnh","3351198","","2675","20230111094319"
"392","Phép_lạ","19436242","","5465","20230630160918"
"393","Khổ_tu","244319","","1555","20190825121523"
"394","Giáo_hoàng_Ađêôđatô_I","447554","","3146","20211213083129"
"395","Khoảng_cách_đồng_chuyển_động","2417109","","2682","20210326061244"
"396","Đất_Thánh","815393","","14060","20230602025805"
"397","Thế_giới_bên_kia","14914","","2682","20230125085005"
"398","Muhammad","28113","","59703","20230617051805"
"399","Thượng_đế","69103","","3612","20230622051650"
"400","Cuộc_chiến_Kitô","18547454","","5379","20220520191158"
"401","Mặc_khải","40107","","5821","20221023071908"
"402","Tên_thánh","2384192","","7247","20221226043422"
"403","Ý_thức_hệ","469477","","46183","20220119145017"
"404","Trung_tâm_Tôn_giáo,_Hòa_bình_và_Các_vấn_đề_Thế_giới_Berkley","19598194","","1781","20210527083846"
"405","GitMind","19546698","","2306","20211205115954"
"406","Quy_luật_lượng_-_chất","801144","","20090","20221212125416"
"407","David_Chalmers","1405823","","3436","20221120161010"
"408","Mục_đích_cuối_cùng","3270067","","1542","20210805123203"
"409","Suy_luận_diễn_dịch","1468264","","1123","20210727135844"
"410","Đức_Nữ_Trung_gian","1763888","","4012","20151214123605"
"411","Thái_độ_xã_hội_đối_với_đồng_tính_luyến_ái","332096","","12642","20221217031833"
"412","Tiên","11904309","","4346","20230610104405"
"413","Vịnh_xướng","3171996","","1775","20220411121548"
"414","Dịch_chuyển_đỏ","6103","","3727","20220311100008"
"415","Tự_thiêu","823665","","4818","20220821090415"
"416","Sám_hối","19706907","","3427","20230407190925"
"417","Trường_phái_nguyên_tử","3304108","","6168","20210305110721"
"418","Nhập_hồn","3192402","","1682","20220322055218"
"419","Dân_chủ_xã_hội","821040","","246988","20230623030953"
"420","Công_đồng_Vienne","1937863","","1794","20201020131606"
"421","Tử_đạo","457287","","2791","20220820135947"
"422","Đạo_Cao_Đài","6218","","4780","20230424145953"
"423","Đấng_đáng_kính","3683704","","4960","20230218154448"
"424","Lịch_sử_triết_học","19476827","","3904","20200808154946"
"425","Loại_trừ_xã_hội","19357117","","4830","20210806131734"
"426","Tò_mò","19225450","","5047","20220325100018"
"427","Lỗ_sâu","32075","","15289","20221006030219"
"428","Triết_học_công_nghệ","3567558","","16126","20230101031731"
"429","Tengri_giáo","19508640","","18350","20230328043509"
"430","Junto","14316376","","16221","20230408124703"
"431","Phật_giáo_Nam_truyền","63272","","5817","20230205061441"
"432","Chủ_nghĩa_phúc_âm","9116","","33144","20230626065331"
"433","Xã_hội_mở","497939","","4134","20221223153830"
"434","Le_Phénomène_humain","2416560","","13730","20230624004541"
"435","Phật_thủ","532538","","2633","20230409182504"
"436","Liên_đoàn_Quốc_tế_về_Lịch_sử_và_Triết_học_của_khoa_học","3218494","","6237","20220130161803"
"437","Mahavira","797721","","9072","20230625164344"
"438","Viện_mẫu","3435469","","3417","20220924145530"
"439","Hiện_tượng_học","3684038","","27741","20221002092353"
"440","Tăng_thống","24213","","19290","20230315144905"
"441","Ankh","13487776","","7789","20211224131948"
"442","Đức_Mẹ_vô_nhiễm_nguyên_tội","1763897","","4997","20220506190421"
"443","Thánh_hóa","33369","","12346","20220906152903"
"444","Trực_giác","1505943","","1346","20230313063107"
"445","Suzuki_Shinichi","19636473","","16260","20220713071001"
"446","Chủ_nghĩa_Tam_Dân","205581","","19300","20230512103147"
"447","Triết_học","6908","","89604","20230318231414"
"448","Nhà_nước_thế_tục","14832891","","29879","20230629022110"
"449","Ý_thức","3501202","","2786","20221002103006"
"450","Ngôn_ngữ_thiêng_liêng","19128727","","1406","20210107202245"
"451","Dao_cạo_Ockham","2457747","","17581","20230717145313"
"452","Ủy_ban_Vũ_trụ_Việt_Nam","543693","","7661","20230101090923"
"453","Hội_Yến_Diêu_Trì_Cung","125619","","7350","20221224103258"
"454","Sáng_chế","44251","","2313","20220614083032"
"455","Yêu_tinh_Giáng_sinh","19494459","","1329","20221007031435"
"456","Định_nghĩa","49611","","4728","20230515133844"
"457","Chủ_nghĩa_tự_do_xã_hội","3250951","","16431","20221110164135"
"458","Thánh_Linh","2152377","","1784","20230325080533"
"459","Thần_học_giải_phóng","786495","","3997","20220319073129"
"460","Thiên_sứ","40950","","23107","20230713222331"
"461","Vầng_hào_quang","19683933","","5843","20220117101803"
"462","Bàn_tay_vô_hình","149511","","6522","20221222030130"
"463","Phật_giáo_Bắc_truyền","18770723","","4776","20230205061221"
"464","Tâm_trí","342972","","41832","20230322044607"
"465","Tôn_giáo_phương_Đông","19811773","","5640","20230706111012"
"466","Hạnh_phúc","250882","","7380","20230510050001"
"467","Chủ_nghĩa_thực_chứng","511993","","4516","20230723201633"
"468","Nhà_thờ","248402","","2766","20230718024912"
"469","Bức_tường_Planck","19194","","3367","20180715024853"
"470","Nghịch_lý_Epicurus","297755","","2715","20210315083627"
"471","Thần_học_Kitô_giáo","3226198","","1401","20230620091141"
"472","Óc_sáng_tạo_và_bệnh_tâm_thần","14937341","","2344","20200804094425"
"473","Nữ_thần","550834","","1897","20220906133203"
"474","Luân_lý_học","74922","","41671","20230608140814"
"475","Tabula_rasa","69831","","727","20220517070058"
"476","Thần_học","543958","","11696","20230524121316"
"477","Công_đồng_Lateranô_IV","1937849","","2065","20220715043635"
"478","Triết_học_Marx-Lenin","760907","","22989","20230512084616"
"479","Ba_Ngôi","7547","","19688","20230616024237"
"480","Bạo_động_tại_Gojra_2009","421965","","5550","20211014184539"
"481","Kỳ_thị_tôn_giáo","19498051","","15207","20230713012056"
"482","Siêu_thần","412273","","1171","20211130025055"
"483","Người_Parsi","15117691","","13372","20221231182536"
"484","Pháp_chủ","255672","","20400","20230620054206"
"485","Mardi_Gras","1742712","","4993","20230626000835"
"486","Tiếp_cận_và_hạ_cánh_thử_nghiệm_tàu_con_thoi","3530485","","16484","20221215012023"
"487","Nghịch_lý_thời_gian","3210618","","1313","20221223062626"
"488","Không_gian_và_thời_gian_(triết_học)","801841","","6246","20230223084750"
"489","The_Satanic_Verses","19746710","","30744","20230408094512"
"490","Triết_học_thông_tin","19132271","","3010","20211014104555"
"491","Chủ_nghĩa_phi_lý","19787602","","4983","20230528100608"
"492","Hội_chúng_của_Đức_Chúa_Trời","16803","","2931","20230620063446"
"493","Nữ_tu","803877","","6154","20221230161752"
"494","Chủ_nghĩa_thế_giới","2388924","","4832","20230515125646"
"495","Memento_mori","813711","","3910","20230605030058"
"496","Thiên_văn_học","1426","","90118","20230415141214"
"497","David_Beckham","31430","","115540","20230622074229"
"498","Tách_biệt_xã_hội","15868129","","3079","20200318055156"
"499","Biến_hóa_(triết_học)","16615731","","7293","20220728020637"
"500","Góa","8120293","","4068","20230112054718"
"501","Thủ_ấn","8779","","12198","20230414033058"
"502","Thần_giáo_tự_nhiên","295555","","3494","20211229040602"
"503","Doãn_Thiện_Đạo","1265612","","5184","20211214025345"
"504","Biểu_tượng_Cơ_Đốc_giáo","19724318","","12337","20220509120518"
"505","Nghiên_cứu_tôn_giáo","19326859","","10477","20220606162758"
"506","Miếu","571420","","4591","20220804224624"
"507","Đức_tin","14892915","","27100","20230409152912"
"508","Phê_bình_kinh_tế_chính_trị","19763032","","25538","20230701021650"
"509","Luật_Môi-se","1677604","","1752","20220410170729"
"510","Tôn_giáo_ở_Eswatini","19148922","","2774","20210319232913"
"511","Người_Do_Thái","137673","","247586","20230706082231"
"512","Vật_tự_thể","32103","","10420","20220103165309"
"513","Thực_tiễn_(triết_học)","19514094","","6614","20220924004456"
"514","Tri_thức","24978","","35579","20230202155319"
"515","Động_não","8338","","12403","20220101145744"
"516","Công_đồng_Trentô","1938522","","2228","20221230012830"
"517","Gabriel_Marcel","1104387","","4114","20211213225409"
"518","Chủ_nghĩa_tư_bản","26002","","174236","20230606175234"
"519","Thuyết_nhị_nguyên_thân-tâm","19482033","","5765","20211204210813"
"520","Không_tôn_giáo","287008","","18115","20230527153108"
"521","Nghiên_cứu_về_giới","19809442","","8798","20230616132452"
"522","Tự_do_kinh_tế","449517","","2304","20230521053633"
"523","Quy_tắc_loại_trừ","12012364","","8481","20221025175137"
"524","Riaz_Ahmed_Gohar_Shahi","294429","","3261","20221019105619"
"525","Gioan_Baotixita","825689","","12495","20230408050733"
"526","Tôn_giáo_và_đồng_tính_luyến_ái","436481","","9419","20211101090457"
"527","Sự_tồn_tại_của_Chúa","17538290","","4835","20211019185524"
"528","Amen","2441434","","10322","20230113042837"
"529","Tiếng_Slav_Giáo_hội_cổ","3508287","","6625","20220401095550"
"530","Phát_triển","3634789","","5251","20220809170500"
"531","Chủ_nghĩa_duy_lý","295946","","3435","20230101054508"
"532","Christadelphians","2360469","","3568","20230513235142"
"533","Công_đồng_Constantinopolis_I","1889092","","11569","20220410171804"
"534","Phê_bình_văn_học","151315","","6752","20200612140030"
"535","Mộ_đạo","19793175","","8075","20230627151507"
"536","Luật_tự_nhiên","69833","","4572","20220217014418"
"537","Đạo_đức","30570","","35589","20230408054623"
"538","Thiên_ma_Ba_Tuần","19813918","","5002","20230711112339"
"539","Hiện_tượng","471976","","3347","20230521235654"
"540","Tả_kinh","19430504","","5634","20210806141059"
"541","Tiếng_Tạng_tiêu_chuẩn","17964","","4620","20221229072639"
"542","Lý_thuyết","7551","","6771","20230625044049"
"543","Triết_học_ngôn_ngữ","14893432","","2894","20210827224320"
"544","Ân_điển","30519","","30827","20220804224611"
"545","Điểm_kì_dị_không-thời_gian","300629","","4974","20230308152102"
"546","Công_đồng_Ephesus","1934318","","13028","20230103203900"
"547","Thuyết_M","10219","","6694","20221116004309"
"548","Thánh_ca_Maria","1764782","","3282","20210131122942"
"549","Lựu","417258","","66736","20230409114941"
"550","Ác_quỷ","241661","","9486","20230114101451"
"551","TRIZ","14629","","3410","20230309055503"
"552","Tín_ngưỡng","6250","","4768","20230706040045"
"553","Hội_đồng_Tinh_thần_tôn_giáo_Baha'i_Việt_Nam","7442804","","10347","20220607082240"
"554","Tiên_nữ","811331","","8913","20230719012554"
"555","Chế_độ_tài_phiệt","3684318","","942","20210319175026"
"556","Phong_trào_chống_giáo_phái","19543116","","9610","20210806194144"
"557","Tùy_cơ_(triết_học)","19745819","","1087","20220811043829"
"558","Thập_Điện_Diêm_vương","1437393","","2938","20230408124243"
"559","Lindsay_Lohan","29194","","31091","20230304131420"
"560","Tuyên_thánh","1679741","","1655","20230316112515"
"561","Chủ_nghĩa_vị_tha","1856655","","6955","20230518084804"
"562","Nhà_truyền_giáo","2457610","","1508","20211110123824"
"563","Hồi_giáo","7816","","68728","20230723151739"
"564","Triết_học_Việt_Nam","75415","","26532","20230622015936"
"565","Georges_Ohsawa","351057","","4155","20220508014716"
"566","Tây_Ban_Nha_chinh_phục_Đế_quốc_Aztec","12224696","","92235","20230322092421"
"567","Logic","51464","","42483","20230310032556"
"568","Martin_Buber","15334789","","3472","20220105081345"
"569","Vận_động_(triết_học_Marx_-_Lenin)","801826","","10901","20220409225001"
"570","Bản_đồ_tư_duy","16363","","13192","20230330062822"
"571","John_Searle","1407051","","6249","20230621033022"
"572","Chủ_nghĩa_cộng_đồng","102125","","4497","20221117055854"
"573","Ban_Chỉnh_Đạo","629738","","1448","20221230074658"
"574","Cơ_bút","193792","","4828","20230220120603"
"575","Dấu_Thánh","2422228","","5854","20221121202412"
"576","Lệch_lạc_(xã_hội_học)","132824","","31454","20221229135843"
"577","Tiệc_Thánh","45497","","29368","20230513044229"
"578","Messiah","3146876","","3349","20211118140605"
"579","Mẫu_thần","19715148","","12691","20230325080432"
"580","Tư_duy","364411","","12792","20230402160950"
"581","Kinh_nghiệm_tôn_giáo","15020524","","10160","20220712183857"
"582","Lỗ_đen_nguyên_thủy","17692830","","12268","20230604135016"
"583","Nhân_vị_tính","3651986","","1705","20221105151555"
"584","Công_đồng_Constantinople_IV_(879/80)","1944427","","2660","20220103070952"
"585","Sự_quân_bình_từ_suy_tưởng","89289","","3860","20160813052418"
"586","Ngữ_nghĩa_học","1249215","","4780","20220413023947"
"587","Công_đồng_Constantinopolis_III","1936339","","3577","20220417081910"
"588","Chủ_nghĩa_nhân_văn","30499","","5555","20230609121111"
"589","Vật_chất_tối","54926","","32960","20230418154159"
"590","Bản_thể_luận","122191","","5923","20230609122030"
"591","Ác","14669825","","24043","20221224021805"
"592","Mẫu_hình","11297","","9814","20230206104853"
"593","Đại_thánh","19485676","","5713","20221205024527"
"594","Chầu_Bà_Đệ_Tứ_Khâm_Sai","814272","","1384","20230424134726"
"595","Thánh_(Kitô_giáo)","67521","","1233","20230329011806"
"596","DOIT","10638","","9583","20220104083621"
"597","Văn_hóa_Kitô_giáo","15746252","","27339","20230610035540"
"598","Các_định_nghĩa_toán_học","14773891","","15223","20220909225601"
"599","Luận_cứ","53496","","12592","20220111130943"
"600","Thánh_giáo","19559956","","915","20230318154529"
"601","Quỷ_ám","3192463","","4583","20221211162203"