number,title,pageid,namespace,length,touched,last_revision,langs_count,category,wiki_lang
2,Do_Thái_giáo,328009,,46974,20230602195638,70074430,,Philosophy and religion,vi
4,Đức_Mẹ_La_Mã_Bến_Tre,812248,,9486,20220723035955,68887975,,Philosophy and religion,vi
6,Ngôn_sứ,2353738,,2132,20230111083200,69560493,,Philosophy and religion,vi
7,Chủ_nghĩa_thế_tục,3211719,,6650,20230717081704,70451952,,Philosophy and religion,vi
8,Thánh_Mẫu,42272,,1773,20230719090559,70458769,,Philosophy and religion,vi
9,Vật_chất_(triết_học),456122,,10004,20221018041646,69204213,,Philosophy and religion,vi
12,Nhà_triết_học,28658,,1743,20220528065537,68657567,,Philosophy and religion,vi
13,Tôn_giáo_và_phá_thai,19497772,,26626,20230322170715,69805792,,Philosophy and religion,vi
14,Hiệu_ứng_pizza,18019020,,13918,20211224103453,67729583,,Philosophy and religion,vi
15,Hành_vi_học,2221725,,4547,20230512040713,69972273,,Philosophy and religion,vi
16,Công_đồng_Lateranô_III,1937843,,1703,20170820095954,29155082,,Philosophy and religion,vi
17,Immanuel_Kant,30992,,101772,20230620133655,70360240,,Philosophy and religion,vi
18,Nhất_nguyên,46010,,3849,20211129181427,67165793,,Philosophy and religion,vi
20,Lương_tâm,76509,,1946,20230309161054,69760349,,Philosophy and religion,vi
21,Đàn_áp_tôn_giáo,19498047,,13071,20210821125337,65661596,,Philosophy and religion,vi
22,Gandharva,2908585,,1898,20220405131303,68402116,,Philosophy and religion,vi
23,Thần,308567,,6356,20230718081829,70455315,,Philosophy and religion,vi
24,Tu_viện,803853,,5001,20220115103957,67952573,,Philosophy and religion,vi
25,Apeiron_(vũ_trụ_học),3394443,,4147,20200817225842,63276236,,Philosophy and religion,vi
26,Căn_phòng_tiếng_Trung_Quốc,3253795,,1707,20230115101006,69572258,,Philosophy and religion,vi
27,Ludwig_von_Mises,19526846,,5253,20211213191634,67513686,,Philosophy and religion,vi
28,Di_vật,19724242,,5924,20221120221834,69336023,,Philosophy and religion,vi
29,Giáo_điều,19586204,,5625,20230506025510,69952359,,Philosophy and religion,vi
30,Tu_sĩ,1301143,,4879,20220821071439,69021769,,Philosophy and religion,vi
31,Trần_Đức_Thảo,56515,,28575,20230320224649,69799274,,Philosophy and religion,vi
33,Các_tôn_giáo_khởi_nguồn_từ_Abraham,6782,,32742,20220804224218,68936720,,Philosophy and religion,vi
35,Jaegwon_Kim,1407046,,2687,20211214033718,67538007,,Philosophy and religion,vi
36,Thần_đạo,143986,,32109,20230331142328,69832979,,Philosophy and religion,vi
37,Sự_dung_hợp_tôn_giáo,19790071,,19760,20230606154813,70091415,,Philosophy and religion,vi
38,Nho_giáo,7031,,237064,20230629004012,70387002,,Philosophy and religion,vi
39,Công_đồng_Lateranô_II,1937841,,2608,20211013155357,66344134,,Philosophy and religion,vi
40,Mật_tông,6173,,15241,20230402165829,69840359,,Philosophy and religion,vi
41,Quảng_Cung_Công_chúa,3679117,,7311,20230613161927,70324285,,Philosophy and religion,vi
42,Chiến_tranh_tôn_giáo,7869534,,3522,20220504041334,68560265,,Philosophy and religion,vi
43,Chủ_nghĩa_thực_chứng_logic,19364276,,4325,20211010095127,66249534,,Philosophy and religion,vi
45,Thiền_tông_Việt_Nam,19686022,,3925,20220622101600,68759350,,Philosophy and religion,vi
46,Do_Thái_giáo_Hasidim,3144713,,3830,20211203014852,67245738,,Philosophy and religion,vi
47,Quan_hệ_giữa_tôn_giáo_và_khoa_học,19364031,,13094,20211106171556,66741587,,Philosophy and religion,vi
49,Chủ_nghĩa_bảo_thủ_xã_hội,17115019,,5735,20221117055239,69323190,,Philosophy and religion,vi
50,A-tu-la,851070,,5720,20221203173420,69379775,,Philosophy and religion,vi
51,Thần_cá_thể,298347,,1534,20230315095829,69778896,,Philosophy and religion,vi
53,Chúa_Con,1290007,,1206,20230325080149,69813508,,Philosophy and religion,vi
54,Tái_sinh,31744,,9169,20230409104434,69863214,,Philosophy and religion,vi
55,Quy_luật_phủ_định,801146,,15503,20220628054623,68785914,,Philosophy and religion,vi
56,Kitô_hữu,61833,,44276,20230101054336,69498984,,Philosophy and religion,vi
57,Thí_nghiệm_tưởng_tượng,550623,,2886,20221025002149,69230790,,Philosophy and religion,vi
58,Đa_nguyên_tôn_giáo,19497882,,10596,20201005110244,63908724,,Philosophy and religion,vi
61,Vấn_đề_tâm-vật,1406926,,4636,20230712003016,70432207,,Philosophy and religion,vi
62,Phép_đặt_tay,19811783,,6798,20230629140923,70389305,,Philosophy and religion,vi
64,Ngũ_chi_Đại_Đạo,825548,,11367,20230323043253,69806889,,Philosophy and religion,vi
65,Guru_Nanak,3146645,,5260,20230617204059,70350065,,Philosophy and religion,vi
67,Lịch_sử_tôn_giáo,270178,,12376,20230213170727,69674919,,Philosophy and religion,vi
71,Đan_sĩ,1395732,,2141,20230625102536,70375920,,Philosophy and religion,vi
72,Con_lừa_của_Buridan,19721765,,19836,20230418045129,69894667,,Philosophy and religion,vi
73,Đức_tin_Kitô_giáo,32547,,17286,20211117005446,66966586,,Philosophy and religion,vi
77,Chúa_Thánh_Linh,29163,,17921,20230121005647,69589362,,Philosophy and religion,vi
78,Chủ_nghĩa_thực_dụng,68887,,4546,20230501005620,69937127,,Philosophy and religion,vi
79,Dị_giáo,1646799,,35705,20230722115615,70470104,,Philosophy and religion,vi
80,Khí_(triết_học),66123,,735,20220713011918,68839174,,Philosophy and religion,vi
81,Bồ_tát,9086,,8596,20230503054415,69943688,,Philosophy and religion,vi
82,Phê_phán_chủ_nghĩa_tư_bản,589799,,9694,20220103133200,67815101,,Philosophy and religion,vi
83,"Đạo_luật_Công_dân,_2019",16320591,,11215,20221031123849,69260407,,Philosophy and religion,vi
85,Kỳ_Na_giáo,469458,,13091,20230519224309,69997936,,Philosophy and religion,vi
86,Triết_học_Ấn_Độ,342975,,10058,20230705034820,70407184,,Philosophy and religion,vi
87,Thế_giới_quan,2263629,,4419,20230315124109,69779346,,Philosophy and religion,vi
88,Wicca,3248639,,1379,20221103162105,69274091,,Philosophy and religion,vi
89,Hội_Thánh_Tin_Lành_Việt_Nam_(miền_Nam),524336,,13734,20230420103844,69902886,,Philosophy and religion,vi
90,Tâm_linh_phi_tôn_giáo,14926175,,996,20190522141516,53426424,,Philosophy and religion,vi
92,Công_đồng_Constantinopolis_V,1951800,,2402,20220910070130,69089327,,Philosophy and religion,vi
94,Công_đồng_Lyon_II,1937858,,1898,20210216123515,64430628,,Philosophy and religion,vi
95,Tự_nhận_thức,19732193,,2598,20220609151331,68702084,,Philosophy and religion,vi
96,Bahá'í_tại_Việt_Nam,824975,,20252,20220704020159,68806728,,Philosophy and religion,vi
97,Công_đồng_Lateranô_I,1936358,,3174,20220103070954,67806796,,Philosophy and religion,vi
98,Tâm_linh,3218231,,5774,20230725044322,70481588,,Philosophy and religion,vi
99,Tư_tế,805906,,6476,20230211160800,69668103,,Philosophy and religion,vi
102,Thánh_Giuse_với_Giáo_hội_Công_giáo_Việt_Nam,1614836,,19903,20230314200505,69777116,,Philosophy and religion,vi
103,Tôn_giáo_Ai_Cập_cổ_đại,504744,,17160,20230710030830,70425532,,Philosophy and religion,vi
104,Trái_Đất_rỗng,800150,,20677,20221213115558,69415265,,Philosophy and religion,vi
105,Viện_phụ,1519618,,1663,20200618143803,62476191,,Philosophy and religion,vi
106,Công_nghị_Constantinopolis_(1872),1953369,,1297,20210726152352,65270192,,Philosophy and religion,vi
107,Tôi_là_ai_-_và_nếu_vậy_thì_bao_nhiêu?,19476107,,3545,20220803064918,68930201,,Philosophy and religion,vi
108,Công_đồng_Vaticanô_I,1938692,,1954,20211228100431,67750252,,Philosophy and religion,vi
109,Chữa_bệnh_bằng_đức_tin,19811778,,17415,20230706152541,70412906,,Philosophy and religion,vi
110,Thời_gian,2563,,21730,20230627063234,70381670,,Philosophy and religion,vi
111,Nước_thánh,19726763,,7430,20230311060349,69765332,,Philosophy and religion,vi
113,Chủ_nghĩa_tự_do_tôn_giáo,19497746,,2831,20201002023553,63893349,,Philosophy and religion,vi
114,Ernst_Haeckel,79481,,3504,20221212001747,69408442,,Philosophy and religion,vi
115,Âm_phủ,9351,,5015,20230418072202,69895154,,Philosophy and religion,vi
117,Độc_quyền_bạo_lực,19739603,,1760,20220828105849,69047493,,Philosophy and religion,vi
118,Pierre_Duhem,1407281,,2680,20211213153729,67506726,,Philosophy and religion,vi
121,Ăn_năn,135209,,18750,20210827141747,65850669,,Philosophy and religion,vi
122,Lý_luận_(triết_học),19514250,,5168,20210812134452,65436395,,Philosophy and religion,vi
123,Chiêm_tinh_học,543961,,121861,20230604070947,70079675,,Philosophy and religion,vi
124,Ấn_Độ_giáo_tại_Việt_Nam,19651629,,5560,20230308142317,69756211,,Philosophy and religion,vi
125,Thánh_Giuse,1519734,,74588,20230320005159,69794961,,Philosophy and religion,vi
126,Triết_học_Hy_Lạp_cổ_đại,460367,,6741,20230615072622,70340949,,Philosophy and religion,vi
127,Kinh_tế_học_Phật_giáo,3209283,,4587,20230622021916,70365290,,Philosophy and religion,vi
128,Phụng_vụ,3637576,,5783,20220106222401,67887016,,Philosophy and religion,vi
131,Tín_ngưỡng_thờ_Mẫu_Việt_Nam,515998,,29785,20230710005023,70492035,,Philosophy and religion,vi
132,Giáo_dân,248393,,2401,20221114093816,69313854,,Philosophy and religion,vi
133,Phép_thuật_trắng,14804740,,1921,20221207045630,69390566,,Philosophy and religion,vi
135,Cứu_rỗi_trong_Kitô_giáo,31743,,18730,20230526043003,70035829,,Philosophy and religion,vi
136,Shaman_giáo,2261123,,9666,20230502050929,69940830,,Philosophy and religion,vi
138,Bùa_hộ_mệnh,320101,,9547,20220626085249,68778637,,Philosophy and religion,vi
140,Nhân_phẩm,19357051,,9175,20230608141117,70110203,,Philosophy and religion,vi
141,Chủ_nghĩa_duy_tâm_chủ_quan,3260638,,2183,20230216140029,69684092,,Philosophy and religion,vi
142,Tôn_giáo_phương_Tây,19811771,,8064,20230710030817,70425531,,Philosophy and religion,vi
143,Dòng_chảy_(tâm_lý),1525564,,8109,20221123080132,69343119,,Philosophy and religion,vi
144,Tính_cách,26272,,5711,20230507151211,69958405,,Philosophy and religion,vi
145,Thi-bà-la,19724525,,3944,20230706130538,70412272,,Philosophy and religion,vi
146,Công_đồng_Constantinopolis_II,1935822,,2805,20220102100129,67783260,,Philosophy and religion,vi
148,Rửa_tội,396838,,13895,20230310022109,69761284,,Philosophy and religion,vi
150,Quốc_giáo,625883,,8168,20220411140217,68447171,,Philosophy and religion,vi
151,Pagan_giáo,2353705,,23102,20221015232522,69197518,,Philosophy and religion,vi
153,Triết_học_kinh_tế,3632655,,583,20190604082108,53693316,,Philosophy and religion,vi
154,Tôn_giáo_La_Mã_cổ_đại,17202482,,5805,20211017211632,66395899,,Philosophy and religion,vi
155,Vũ_trụ_học_tôn_giáo,19497749,,3526,20210430012041,64822697,,Philosophy and religion,vi
156,Triết_học_chính_trị,91951,,17632,20211103124142,66657352,,Philosophy and religion,vi
157,Giáo_sĩ,3116460,,2391,20230305053756,69744274,,Philosophy and religion,vi
158,Thần_thoại,24370,,15246,20221217114337,69440018,,Philosophy and religion,vi
159,Nghi_lễ_trừ_tà,19728833,,16171,20220528111744,68658146,,Philosophy and religion,vi
160,Thánh_Mẫu_học,1880436,,4443,20211118135431,67029886,,Philosophy and religion,vi
162,Thập_tự_chinh,62970,,43359,20230404082526,69845208,,Philosophy and religion,vi
163,Hasdai_Crescas,19796938,,94837,20230618074352,70351583,,Philosophy and religion,vi
164,Hiệp_sĩ_của_Đức_tin,7459241,,44012,20200718105749,63052626,,Philosophy and religion,vi
165,Tôn_giáo_Inuit,19729028,,10883,20230629051635,70387773,,Philosophy and religion,vi
166,Tôn_giáo_của_người_Chăm,1739783,,29562,20230626113702,70379516,,Philosophy and religion,vi
167,Cách_ngôn,19356961,,1466,20230606151350,70090945,,Philosophy and religion,vi
168,Mê_tín,457502,,4867,20230630135604,70393004,,Philosophy and religion,vi
169,Tự_hào,13375417,,5082,20230102163521,69513346,,Philosophy and religion,vi
170,Epictetus,18017039,,9721,20220404075812,68397319,,Philosophy and religion,vi
171,Tôn_giáo_Maya,781428,,1163,20221102100254,69268934,,Philosophy and religion,vi
172,Triết_học_xã_hội,92714,,1708,20200619183341,62504844,,Philosophy and religion,vi
173,Giáo_lý_Vấn_đáp_Heidelberg,1738707,,5847,20221016085221,69198970,,Philosophy and religion,vi
174,Trường_phái_Frankfurt,1325918,,4136,20220719044836,68874865,,Philosophy and religion,vi
175,Trí_thức,1115812,,4739,20230610083554,70123081,,Philosophy and religion,vi
176,Phạm_trù,151852,,4514,20211019184500,66418693,,Philosophy and religion,vi
178,Giới_luật_Phật_giáo,19784204,,5568,20230617113408,70348740,,Philosophy and religion,vi
181,Người_canh_giữ_Hai_Thánh_địa,3712469,,1690,20220104220734,67836907,,Philosophy and religion,vi
182,Định,78407,,6240,20230317050731,69784939,,Philosophy and religion,vi
183,Chính_sách_tôn_giáo_tách_biệt_ở_Pháp,3191721,,5261,20220509033932,68579456,,Philosophy and religion,vi
184,Jiddu_Krishnamurti,266811,,11556,20230311125819,69766629,,Philosophy and religion,vi
185,Công_đồng_Lyon_I,1937855,,1556,20201020122250,63960542,,Philosophy and religion,vi
187,Đạo_lý,3272691,,6999,20230305111830,69745159,,Philosophy and religion,vi
188,Pyrrho,3305247,,5445,20211214113219,67564329,,Philosophy and religion,vi
189,Phép_thuật,440512,,5041,20230129105921,70492599,,Philosophy and religion,vi
190,Mõ,1277102,,14166,20220718035023,68871379,,Philosophy and religion,vi
191,Đại_Tiên,19551828,,3069,20230610104602,70123545,,Philosophy and religion,vi
193,Chủ_nghĩa_vị_lợi,3646498,,121319,20230420091837,69902617,,Philosophy and religion,vi
194,Hội_Long_Hoa,14757175,,7286,20230712035344,70432794,,Philosophy and religion,vi
195,Hội_thánh_vô_hình,2152375,,11406,20211023093559,66455146,,Philosophy and religion,vi
196,Liên_văn_hóa,13131305,,4477,20230524034838,70025323,,Philosophy and religion,vi
199,Muối_thánh,19728824,,3471,20220606102726,68689583,,Philosophy and religion,vi
201,Phật_Mẫu,19706595,,1092,20230525025713,70029967,,Philosophy and religion,vi
203,Hedone,13833166,,1808,20211125000920,67123233,,Philosophy and religion,vi
204,Thuyết_hư_vô,3127990,,10917,20230303043720,69737043,,Philosophy and religion,vi
206,Giải_thoát,31342,,4432,20221214104317,69426410,,Philosophy and religion,vi
207,Ý_tưởng,1249257,,1970,20201102184623,64005858,,Philosophy and religion,vi
208,Tôn_giáo_Lưỡng_Hà_cổ_đại,16593537,,4362,20220708160203,68823184,,Philosophy and religion,vi
211,Năm_Tín_lý_Duy_nhất,50482,,4104,20211112132038,66874319,,Philosophy and religion,vi
212,Chuỗi_tràng_hạt_(Phật_giáo),308332,,6718,20220516204047,68608682,,Philosophy and religion,vi
214,Bảy_công_đồng_đại_kết_đầu_tiên,1968288,,5647,20220418162501,68496462,,Philosophy and religion,vi
215,Lạc_quan,14666750,,4208,20230330081940,69828757,,Philosophy and religion,vi
216,Tôn_giáo,4620,,57072,20230719084548,70458709,,Philosophy and religion,vi
217,Chữ_Vạn,65015,,15355,20230515143639,69984952,,Philosophy and religion,vi
218,Luận_cứ_mục_đích,58003,,11399,20221005115832,69165505,,Philosophy and religion,vi
219,Giáo_trưởng,14476963,,1729,20220904042541,69070125,,Philosophy and religion,vi
221,Thích-ca_Mâu-ni,11444,,121711,20230721064004,70465746,,Philosophy and religion,vi
222,Thuyết_ngộ_đạo,3145591,,8917,20221216233153,69436625,,Philosophy and religion,vi
226,Bạch_Liên_giáo,805869,,1293,20220215020540,68155337,,Philosophy and religion,vi
227,Triết_học_giáo_dục,2427716,,5757,20230318231838,69790818,,Philosophy and religion,vi
228,Giáo_hội_Công_giáo_Quốc_gia_Ba_Lan,19581585,,6554,20220203111738,68095664,,Philosophy and religion,vi
229,Giambattista_Vico,19435925,,20221,20230604103645,70080665,,Philosophy and religion,vi
230,Thuyết_độc_thần,14404,,11714,20220515145314,68604140,,Philosophy and religion,vi
231,Chính_thống,15113017,,1084,20211102133526,66642300,,Philosophy and religion,vi
232,Chủ_nghĩa_hoài_nghi,51240,,29717,20210812120032,65426882,,Philosophy and religion,vi
233,Đạo_Hà_Mòn,13515496,,3132,20211115100453,66939087,,Philosophy and religion,vi
235,Cộng_tính_văn_hóa,19739207,,47281,20230518161723,69994533,,Philosophy and religion,vi
236,In_shā'_Allāh,19357988,,3389,20210816123849,65497979,,Philosophy and religion,vi
237,Ai_là_người_Do_Thái?,3144274,,7729,20230415215208,69887131,,Philosophy and religion,vi
238,Thuật_phù_thuỷ,1342081,,6133,20230311081214,69765782,,Philosophy and religion,vi
239,Cứu_độ,19270393,,9871,20230707143834,70416748,,Philosophy and religion,vi
240,Thực_tế,469422,,46024,20230714072808,70441330,,Philosophy and religion,vi
241,Biểu_tượng_Phật_giáo,19724284,,24823,20230607044931,70093478,,Philosophy and religion,vi
242,Chủ_nghĩa_nhân_đạo,268571,,1442,20220617112736,68740508,,Philosophy and religion,vi
243,Phép_thuật_đen,14338431,,1831,20221127045720,69355590,,Philosophy and religion,vi
244,Augustinô_thành_Hippo,42203,,48541,20230706134950,70412432,,Philosophy and religion,vi
245,Mô_hình_khái_niệm,18606835,,5719,20221231182645,69493542,,Philosophy and religion,vi
246,Akbar_Đại_đế,239837,,42619,20221102092252,69268765,,Philosophy and religion,vi
247,Ảnh_hưởng_của_đại_dịch_COVID-19_đối_với_tôn_giáo,19627956,,34676,20230409204413,69864854,,Philosophy and religion,vi
248,Tam_giáo,4732,,7715,20230105061139,69530160,,Philosophy and religion,vi
249,Thuyết_nhị_nguyên,192419,,7255,20211129181537,67165795,,Philosophy and religion,vi
250,Chủ_nghĩa_duy_con_người,562320,,2100,20230604060337,70079355,,Philosophy and religion,vi
251,Hội_Thánh_Đức_Chúa_Trời_Toàn_Năng,15199611,,13402,20230624012242,70371359,,Philosophy and religion,vi
252,Xuất_thần,19729157,,6294,20220526124410,68651515,,Philosophy and religion,vi
253,Công_giáo,3719,,11138,20221019164412,69209961,,Philosophy and religion,vi
254,Vĩnh_cửu_luân_hồi,324671,,3328,20230215051729,69679307,,Philosophy and religion,vi
256,Ba_quy_luật_cơ_bản_của_phép_biện_chứng_duy_vật,801148,,8396,20230129123725,69616992,,Philosophy and religion,vi
257,Á_thần,19344334,,17963,20230719080233,70458569,,Philosophy and religion,vi
258,Kinh_Dịch,3012,,43166,20230427135317,69926623,,Philosophy and religion,vi
259,Khái_niệm,24551,,2568,20221105151555,69280725,,Philosophy and religion,vi
260,10_vị_Bồ_Tát,19795877,,5620,20230715103232,70445888,,Philosophy and religion,vi
262,Tha_thứ,14369326,,8762,20210813134459,65455918,,Philosophy and religion,vi
264,Nymph,807790,,9860,20230629144541,70389519,,Philosophy and religion,vi
266,Tôn_kính_Đức_Maria,1764464,,4463,20211028231701,66553643,,Philosophy and religion,vi
267,Chân_trời_vũ_trụ_học,92221,,1508,20210326061243,64664816,,Philosophy and religion,vi
268,Thiên_Chúa_giáo,3381,,4621,20230607113532,70095048,,Philosophy and religion,vi
269,Pháp_danh,14251156,,5237,20220730110849,68912535,,Philosophy and religion,vi
270,Aaron,3260744,,3122,20181226120325,46558856,,Philosophy and religion,vi
271,Công_đồng_Lateranô_V,1938351,,1812,20210806051830,65334586,,Philosophy and religion,vi
273,Tam_minh,78403,,1487,20221223015833,69462090,,Philosophy and religion,vi
275,Đạo_giáo,14406,,75813,20230316095908,69782131,,Philosophy and religion,vi
277,Abraxas,19629165,,6519,20230418065322,69895060,,Philosophy and religion,vi
278,Chúa_Cha,29164,,9950,20230325080211,69813509,,Philosophy and religion,vi
279,Thông_thiên_học,19791139,,12203,20230506145641,69954985,,Philosophy and religion,vi
280,Mục_đích_luận,588584,,1838,20230502085905,69941347,,Philosophy and religion,vi
281,Kitô_giáo,3372,,94202,20230706131014,70412291,,Philosophy and religion,vi
284,Dòng_Anh_Em_Giảng_Thuyết,1710734,,6203,20230610131242,70123964,,Philosophy and religion,vi
285,Tấn_phong,3175908,,617,20210226003227,64472866,,Philosophy and religion,vi
286,Phong_trào_Đại_kết,822460,,18535,20220601024710,68671292,,Philosophy and religion,vi
287,Mẫu_Địa,42294,,646,20221224055538,69467573,,Philosophy and religion,vi
288,Tôn_giáo_và_sức_khỏe,14850452,,8724,20221231183002,69493758,,Philosophy and religion,vi
290,William_James,194026,,4365,20221001141749,69153687,,Philosophy and religion,vi
291,Nghi_thức_Rôma,17344571,,23642,20221229140121,69487163,,Philosophy and religion,vi
293,Triết_học_hậu_hiện_đại,19363572,,4977,20211010101010,66250451,,Philosophy and religion,vi
294,Ngôi_sao_năm_cánh,322023,,25032,20230123205219,69597891,,Philosophy and religion,vi
296,A-la-hán,8777,,67474,20230329164231,69827182,,Philosophy and religion,vi
298,Vũ_điệu_tử_thần,813713,,3103,20230307151350,69753145,,Philosophy and religion,vi
299,Nhân_Chứng_Giê-hô-va,2061,,10031,20230310090302,69762396,,Philosophy and religion,vi
300,Giờ_tương_đối,15007769,,4822,20200819085825,63446735,,Philosophy and religion,vi
301,Bản_tuyên_tín,19385165,,2783,20220918135526,69115580,,Philosophy and religion,vi
303,Kê_gian,3182739,,12648,20230714153841,70442706,,Philosophy and religion,vi
304,Triết_học_luật_pháp,1750452,,2372,20200814104232,63235843,,Philosophy and religion,vi
305,Thánh_nữ,19748282,,1522,20230325080331,69813515,,Philosophy and religion,vi
306,Giáo_hội,1377676,,6644,20210603040116,64992806,,Philosophy and religion,vi
307,Flying_Spaghetti_Monster,775982,,20120,20230616055505,70343958,,Philosophy and religion,vi
309,Candomblé,19790000,,16659,20230323191235,69809359,,Philosophy and religion,vi
311,Thiền_(thực_hành),3148065,,18659,20230605083247,70084902,,Philosophy and religion,vi
312,Sự_giáng_sinh_của_Giêsu,1407136,,8786,20230705080529,70407876,,Philosophy and religion,vi
313,Averroes,198226,,9876,20220220073310,68179884,,Philosophy and religion,vi
314,Công_đồng_Nicaea_II,1936355,,2758,20220414174720,68466736,,Philosophy and religion,vi
315,Nguyên_tắc_vàng,19420707,,4108,20220518094745,68618112,,Philosophy and religion,vi
316,Thế_tục,3276961,,1243,20220314151040,68284152,,Philosophy and religion,vi
317,Bản_sắc_cá_nhân,3652276,,14596,20211123185120,67115997,,Philosophy and religion,vi
319,Giáo_hội_Công_giáo_Cổ,1939910,,3635,20220522031258,68630688,,Philosophy and religion,vi
320,Phẩm_trật_Thiên_thần_trong_Kitô_giáo,1519434,,12660,20230613092345,70287721,,Philosophy and religion,vi
321,Bất_bạo_động,372154,,16432,20220323093943,68334789,,Philosophy and religion,vi
322,Siêu_hình_học,77946,,7116,20230109211217,69555314,,Philosophy and religion,vi
323,Công_đồng_Quinisext,1943508,,2212,20230603111709,70076571,,Philosophy and religion,vi
325,Lễ_vật,19724252,,6410,20221202220548,69376624,,Philosophy and religion,vi
326,Sách_bài_đọc,3405722,,1179,20211115092232,66937963,,Philosophy and religion,vi
327,Mỹ_học,13324,,4475,20230110074656,69556798,,Philosophy and religion,vi
329,Vô_tận,16834,,15408,20230109085317,69551554,,Philosophy and religion,vi
330,Triết_học_về_tôn_giáo,19326928,,7025,20211010143131,66260852,,Philosophy and religion,vi
332,Ý_nghĩa_cuộc_sống,573645,,8012,20220224040406,68195743,,Philosophy and religion,vi
333,Conatus,19590615,,59201,20220413023044,68455757,,Philosophy and religion,vi
334,Lời_khai,19271436,,3451,20200518093226,61651463,,Philosophy and religion,vi
335,Nous,19477039,,3818,20221119160621,69331361,,Philosophy and religion,vi
336,György_Lukács,1422409,,5935,20221012120110,69187514,,Philosophy and religion,vi
337,Oxford_Calculators,16245441,,8213,20220906011654,69076572,,Philosophy and religion,vi
338,Lập_luận,53584,,4631,20210304142432,64552050,,Philosophy and religion,vi
339,Đại_lễ_vía_Đức_Chí_Tôn,19774379,,5157,20230110032536,69555768,,Philosophy and religion,vi
340,Tội_lỗi,44440,,23793,20220804225926,68938329,,Philosophy and religion,vi
341,Trường_phái_tư_tưởng,19809585,,2957,20230617075420,70347822,,Philosophy and religion,vi
343,Cầu_nguyện,819591,,713,20221211103012,69406368,,Philosophy and religion,vi
344,Ẩn_sĩ,826041,,3229,20200526154314,61874417,,Philosophy and religion,vi
346,Lễ_Đức_Mẹ_dâng_Chúa_Giêsu_trong_đền_thánh,1763885,,4024,20221224090717,69468032,,Philosophy and religion,vi
349,Kinh_điển_Phật_giáo_sơ_kỳ,19616763,,43205,20230309142448,69759929,,Philosophy and religion,vi
350,Linh_hồn,112258,,11846,20230726010750,70484234,,Philosophy and religion,vi
351,Cơn_sốt_đĩa_bay_1947,19771006,,5167,20230122101007,69593462,,Philosophy and religion,vi
353,Joshua_Project,11685297,,4732,20180103163426,36436138,,Philosophy and religion,vi
354,Allah,330297,,8297,20230530170304,70061395,,Philosophy and religion,vi
356,Thế_giới_linh_hồn,14556166,,5695,20221217072232,69437704,,Philosophy and religion,vi
357,Thuyết_bất_khả_tri,37975,,5257,20220731042333,68916008,,Philosophy and religion,vi
358,Triết_học_tự_nhiên,3713631,,2472,20210209132315,64401981,,Philosophy and religion,vi
360,Thông_diễn_học,3431593,,2867,20221118083902,69326727,,Philosophy and religion,vi
361,Christian_Wolff_(nhà_triết_học),3656106,,2646,20201128200957,64094396,,Philosophy and religion,vi
362,Thánh_truyền,1880952,,4428,20190607085215,53803129,,Philosophy and religion,vi
363,Xã_hội_tiêu_dùng,982551,,7764,20221030020210,69249147,,Philosophy and religion,vi
365,Cây_sự_sống,19603866,,48592,20230106132650,69542362,,Philosophy and religion,vi
366,Triết_học_đương_đại,19363570,,1732,20220312033439,68269331,,Philosophy and religion,vi
368,Minh_Lý_Đạo,1741819,,5360,20230605144309,70086372,,Philosophy and religion,vi
369,Chủ_nghĩa_vô_thần,12318,,122749,20230725095045,70482439,,Philosophy and religion,vi
370,Công_đồng_Constance,1937985,,2651,20220530034741,68664538,,Philosophy and religion,vi
371,Bất_nhị,19668978,,38512,20230506132352,69954627,,Philosophy and religion,vi
372,"Đền_thờ_Bahá’í,_Battambang",7456747,,5121,20211121093013,67102914,,Philosophy and religion,vi
373,Ngũ_chi_Minh_Đạo,2456964,,2708,20221205115132,69384792,,Philosophy and religion,vi
374,Sự_phục_sinh_của_Giêsu,35949,,34470,20230601035713,70067500,,Philosophy and religion,vi
375,Jürgen_Habermas,450953,,2217,20220311160101,68268072,,Philosophy and religion,vi
376,Kundalini,2444724,,41068,20230204020118,69639455,,Philosophy and religion,vi
377,Lễ_Hiển_Linh,1678768,,9052,20220101072824,67775627,,Philosophy and religion,vi
379,Ý_chí_tự_do,342855,,33926,20221030180838,69257635,,Philosophy and religion,vi
380,Công_đồng_Florence,1938162,,1910,20230611043536,70126266,,Philosophy and religion,vi
381,Thiên_đình,255504,,3857,20230213083609,69673121,,Philosophy and religion,vi
383,Tri_thức_luận,37268,,25096,20230707200855,70417553,,Philosophy and religion,vi
384,Chủ_nghĩa_duy_vật_biện_chứng,581253,,8552,20230507031926,69956590,,Philosophy and religion,vi
386,Triết_học_toán_học,14761780,,82513,20230126232124,69607182,,Philosophy and religion,vi
387,Phật_giáo,4651,,143293,20230701084743,70395123,,Philosophy and religion,vi
388,Bức_màn_vô_thức,3271230,,1524,20230403130554,69843099,,Philosophy and religion,vi
389,Chết,18758,,38739,20230612161830,70269009,,Philosophy and religion,vi
390,Phục_sinh,16586046,,34982,20230409061037,69862440,,Philosophy and religion,vi
391,Giáo_tỉnh,3351198,,2675,20230111094319,69560692,,Philosophy and religion,vi
392,Phép_lạ,19436242,,5465,20230630160918,70393375,,Philosophy and religion,vi
393,Khổ_tu,244319,,1555,20190825121523,55042141,,Philosophy and religion,vi
394,Giáo_hoàng_Ađêôđatô_I,447554,,3146,20211213083129,67502017,,Philosophy and religion,vi
396,Đất_Thánh,815393,,14060,20230602025805,70071380,,Philosophy and religion,vi
397,Thế_giới_bên_kia,14914,,2682,20230125085005,69603145,,Philosophy and religion,vi
398,Muhammad,28113,,59703,20230617051805,70347296,,Philosophy and religion,vi
399,Thượng_đế,69103,,3612,20230622051650,70365699,,Philosophy and religion,vi
401,Mặc_khải,40107,,5821,20221023071908,69224751,,Philosophy and religion,vi
402,Tên_thánh,2384192,,7247,20221226043422,69473436,,Philosophy and religion,vi
403,Ý_thức_hệ,469477,,46183,20220119145017,67986168,,Philosophy and religion,vi
404,"Trung_tâm_Tôn_giáo,_Hòa_bình_và_Các_vấn_đề_Thế_giới_Berkley",19598194,,1781,20210527083846,64960625,,Philosophy and religion,vi
407,David_Chalmers,1405823,,3436,20221120161010,69335267,,Philosophy and religion,vi
408,Mục_đích_cuối_cùng,3270067,,1542,20210805123203,65323163,,Philosophy and religion,vi
409,Suy_luận_diễn_dịch,1468264,,1123,20210727135844,65274556,,Philosophy and religion,vi
410,Đức_Nữ_Trung_gian,1763888,,4012,20151214123605,22553356,,Philosophy and religion,vi
412,Tiên,11904309,,4346,20230610104405,70123526,,Philosophy and religion,vi
413,Vịnh_xướng,3171996,,1775,20220411121548,68446462,,Philosophy and religion,vi
415,Tự_thiêu,823665,,4818,20220821090415,69022128,,Philosophy and religion,vi
416,Sám_hối,19706907,,3427,20230407190925,69856924,,Philosophy and religion,vi
417,Trường_phái_nguyên_tử,3304108,,6168,20210305110721,64556706,,Philosophy and religion,vi
418,Nhập_hồn,3192402,,1682,20220322055218,68327790,,Philosophy and religion,vi
419,Dân_chủ_xã_hội,821040,,246988,20230623030953,70368685,,Philosophy and religion,vi
420,Công_đồng_Vienne,1937863,,1794,20201020131606,63960656,,Philosophy and religion,vi
421,Tử_đạo,457287,,2791,20220820135947,69019633,,Philosophy and religion,vi
423,Đấng_đáng_kính,3683704,,4960,20230218154448,69691903,,Philosophy and religion,vi
424,Lịch_sử_triết_học,19476827,,3904,20200808154946,63210142,,Philosophy and religion,vi
428,Triết_học_công_nghệ,3567558,,16126,20230101031731,69495901,,Philosophy and religion,vi
429,Tengri_giáo,19508640,,18350,20230328043509,69822241,,Philosophy and religion,vi
431,Phật_giáo_Nam_truyền,63272,,5817,20230205061441,69643645,,Philosophy and religion,vi
432,Chủ_nghĩa_phúc_âm,9116,,33144,20230626065331,70378707,,Philosophy and religion,vi
434,Le_Phénomène_humain,2416560,,13730,20230624004541,70371299,,Philosophy and religion,vi
437,Mahavira,797721,,9072,20230625164344,70377193,,Philosophy and religion,vi
438,Viện_mẫu,3435469,,3417,20220924145530,69131896,,Philosophy and religion,vi
439,Hiện_tượng_học,3684038,,27741,20221002092353,69156178,,Philosophy and religion,vi
440,Tăng_thống,24213,,19290,20230315144905,69779845,,Philosophy and religion,vi
441,Ankh,13487776,,7789,20211224131948,67730198,,Philosophy and religion,vi
442,Đức_Mẹ_vô_nhiễm_nguyên_tội,1763897,,4997,20220506190421,68569941,,Philosophy and religion,vi
443,Thánh_hóa,33369,,12346,20220906152903,69078967,,Philosophy and religion,vi
444,Trực_giác,1505943,,1346,20230313063107,69772066,,Philosophy and religion,vi
447,Triết_học,6908,,89604,20230318231414,69790812,,Philosophy and religion,vi
448,Nhà_nước_thế_tục,14832891,,29879,20230629022110,70387185,,Philosophy and religion,vi
449,Ý_thức,3501202,,2786,20221002103006,69156444,,Philosophy and religion,vi
450,Ngôn_ngữ_thiêng_liêng,19128727,,1406,20210107202245,64241512,,Philosophy and religion,vi
453,Hội_Yến_Diêu_Trì_Cung,125619,,7350,20221224103258,69468259,,Philosophy and religion,vi
455,Yêu_tinh_Giáng_sinh,19494459,,1329,20221007031435,69170504,,Philosophy and religion,vi
456,Định_nghĩa,49611,,4728,20230515133844,69984715,,Philosophy and religion,vi
457,Chủ_nghĩa_tự_do_xã_hội,3250951,,16431,20221110164135,69299797,,Philosophy and religion,vi
458,Thánh_Linh,2152377,,1784,20230325080533,69813525,,Philosophy and religion,vi
459,Thần_học_giải_phóng,786495,,3997,20220319073129,68312681,,Philosophy and religion,vi
460,Thiên_sứ,40950,,23107,20230713222331,70440123,,Philosophy and religion,vi
461,Vầng_hào_quang,19683933,,5843,20220117101803,67969738,,Philosophy and religion,vi
462,Bàn_tay_vô_hình,149511,,6522,20221222030130,69459006,,Philosophy and religion,vi
463,Phật_giáo_Bắc_truyền,18770723,,4776,20230205061221,69643640,,Philosophy and religion,vi
464,Tâm_trí,342972,,41832,20230322044607,69803705,,Philosophy and religion,vi
465,Tôn_giáo_phương_Đông,19811773,,5640,20230706111012,70411972,,Philosophy and religion,vi
466,Hạnh_phúc,250882,,7380,20230510050001,69965847,,Philosophy and religion,vi
467,Chủ_nghĩa_thực_chứng,511993,,4516,20230723201633,70476160,,Philosophy and religion,vi
468,Nhà_thờ,248402,,2766,20230718024912,70454619,,Philosophy and religion,vi
470,Nghịch_lý_Epicurus,297755,,2715,20210315083627,64602496,,Philosophy and religion,vi
471,Thần_học_Kitô_giáo,3226198,,1401,20230620091141,70359582,,Philosophy and religion,vi
473,Nữ_thần,550834,,1897,20220906133203,69078496,,Philosophy and religion,vi
474,Luân_lý_học,74922,,41671,20230608140814,70110127,,Philosophy and religion,vi
475,Tabula_rasa,69831,,727,20220517070058,68610180,,Philosophy and religion,vi
476,Thần_học,543958,,11696,20230524121316,70027914,,Philosophy and religion,vi
477,Công_đồng_Lateranô_IV,1937849,,2065,20220715043635,68859519,,Philosophy and religion,vi
478,Triết_học_Marx-Lenin,760907,,22989,20230512084616,69972983,,Philosophy and religion,vi
479,Ba_Ngôi,7547,,19688,20230616024237,70343369,,Philosophy and religion,vi
480,Bạo_động_tại_Gojra_2009,421965,,5550,20211014184539,66365975,,Philosophy and religion,vi
481,Kỳ_thị_tôn_giáo,19498051,,15207,20230713012056,70436405,,Philosophy and religion,vi
482,Siêu_thần,412273,,1171,20211130025055,67166654,,Philosophy and religion,vi
483,Người_Parsi,15117691,,13372,20221231182536,69493481,,Philosophy and religion,vi
484,Pháp_chủ,255672,,20400,20230620054206,70358944,,Philosophy and religion,vi
485,Mardi_Gras,1742712,,4993,20230626000835,70377773,,Philosophy and religion,vi
487,Nghịch_lý_thời_gian,3210618,,1313,20221223062626,69462773,,Philosophy and religion,vi
488,Không_gian_và_thời_gian_(triết_học),801841,,6246,20230223084750,69708754,,Philosophy and religion,vi
490,Triết_học_thông_tin,19132271,,3010,20211014104555,66355850,,Philosophy and religion,vi
491,Chủ_nghĩa_phi_lý,19787602,,4983,20230528100608,70047959,,Philosophy and religion,vi
492,Hội_chúng_của_Đức_Chúa_Trời,16803,,2931,20230620063446,70359083,,Philosophy and religion,vi
493,Nữ_tu,803877,,6154,20221230161752,69490273,,Philosophy and religion,vi
494,Chủ_nghĩa_thế_giới,2388924,,4832,20230515125646,69984601,,Philosophy and religion,vi
495,Memento_mori,813711,,3910,20230605030058,70083281,,Philosophy and religion,vi
498,Tách_biệt_xã_hội,15868129,,3079,20200318055156,59547998,,Philosophy and religion,vi
499,Biến_hóa_(triết_học),16615731,,7293,20220728020637,68904069,,Philosophy and religion,vi
500,Góa,8120293,,4068,20230112054718,69562571,,Philosophy and religion,vi
501,Thủ_ấn,8779,,12198,20230414033058,69879023,,Philosophy and religion,vi
502,Thần_giáo_tự_nhiên,295555,,3494,20211229040602,67759793,,Philosophy and religion,vi
503,Doãn_Thiện_Đạo,1265612,,5184,20211214025345,67535849,,Philosophy and religion,vi
504,Biểu_tượng_Cơ_Đốc_giáo,19724318,,12337,20220509120518,68581618,,Philosophy and religion,vi
505,Nghiên_cứu_tôn_giáo,19326859,,10477,20220606162758,68690856,,Philosophy and religion,vi
506,Miếu,571420,,4591,20220804224624,68937155,,Philosophy and religion,vi
507,Đức_tin,14892915,,27100,20230409152912,69864240,,Philosophy and religion,vi
509,Luật_Môi-se,1677604,,1752,20220410170729,68440585,,Philosophy and religion,vi
510,Tôn_giáo_ở_Eswatini,19148922,,2774,20210319232913,64621526,,Philosophy and religion,vi
511,Người_Do_Thái,137673,,247586,20230706082231,70411279,,Philosophy and religion,vi
512,Vật_tự_thể,32103,,10420,20220103165309,67823654,,Philosophy and religion,vi
513,Thực_tiễn_(triết_học),19514094,,6614,20220924004456,69129715,,Philosophy and religion,vi
514,Tri_thức,24978,,35579,20230202155319,69634740,,Philosophy and religion,vi
516,Công_đồng_Trentô,1938522,,2228,20221230012830,69488308,,Philosophy and religion,vi
